(declare-const s (Seq Int))
(assert (<= (seq.len s) 5))
(assert (>= (seq.len s) 1))
(assert (forall ((i Int)) (=> (and (<= 0 i) (< i (seq.len s))) (= (seq.nth s i) 0))))
(assert (exists ((i Int)) (and (<= 0 i) (< i (seq.len s)) (= (seq.nth s i) 7))))
(check-sat)
